T = 150;
V = 20;
Q = 15;
L = 11;
C = 4;
P = 20;
time = [|  0, 17, 11, 19, 11, 19, 19, 19, 19, 17, 13, 19, 13, 19,  0, 13, 13,  6, 11, 17, 11, 13, 17, 17, 13, 17, 13,  6, 17, 13, 17, 19, 13, 13, 13,  6, 11, 13, 17, 13,  8,  8,  8,  8,  8,  8,  8,  8,  8,  8,  8,  8,  8,  8,  8,  8,  8,  8,  8,  8,  8,  8,  8,  8,  8,  8,  8,  8,  8,  8,  8,  8,  8,  8,  8,  8,  8,  8,  8,  8,
        | 17,  0, 10, 12, 10, 12, 12, 12, 12, 10, 11, 12, 19, 18, 17, 11, 20, 12, 23,  0, 10, 20,  0,  0, 19, 10, 19, 12, 10, 11,  0, 18, 11, 11, 11, 12, 23, 11,  0, 20, 11, 11, 11, 11, 11, 11, 11, 11, 11, 11, 11, 11, 11, 11, 11, 11, 11, 11, 11, 11, 11, 11, 11, 11, 11, 11, 11, 11, 11, 11, 11, 11, 11, 11, 11, 11, 11, 11, 11, 11,
        | 11, 10,  0,  9,  0,  9,  9,  9,  9, 17,  3,  9, 20, 10, 11,  3, 20,  6, 20, 10,  0, 20, 10, 10, 20, 17, 20,  6, 17,  3, 10, 10,  3,  3,  3,  6, 20,  3, 10, 20, 10, 10, 10, 10, 10, 10, 10, 10, 10, 10, 10, 10, 10, 10, 10, 10, 10, 10, 10, 10, 10, 10, 10, 10, 10, 10, 10, 10, 10, 10, 10, 10, 10, 10, 10, 10, 10, 10, 10, 10,
        | 19, 12,  9,  0,  9,  0,  0,  0,  0, 22,  7,  0, 27,  7, 19,  7, 27, 14, 28, 12,  9, 27, 12, 12, 27, 22, 27, 14, 22,  7, 12,  7,  7,  7,  7, 14, 28,  7, 12, 27, 17, 17, 17, 17, 17, 17, 17, 17, 17, 17, 17, 17, 17, 17, 17, 17, 17, 17, 17, 17, 17, 17, 17, 17, 17, 17, 17, 17, 17, 17, 17, 17, 17, 17, 17, 17, 17, 17, 17, 17,
        | 11, 10,  0,  9,  0,  9,  9,  9,  9, 17,  3,  9, 20, 10, 11,  3, 20,  6, 20, 10,  0, 20, 10, 10, 20, 17, 20,  6, 17,  3, 10, 10,  3,  3,  3,  6, 20,  3, 10, 20, 10, 10, 10, 10, 10, 10, 10, 10, 10, 10, 10, 10, 10, 10, 10, 10, 10, 10, 10, 10, 10, 10, 10, 10, 10, 10, 10, 10, 10, 10, 10, 10, 10, 10, 10, 10, 10, 10, 10, 10,
        | 19, 12,  9,  0,  9,  0,  0,  0,  0, 22,  7,  0, 27,  7, 19,  7, 27, 14, 28, 12,  9, 27, 12, 12, 27, 22, 27, 14, 22,  7, 12,  7,  7,  7,  7, 14, 28,  7, 12, 27, 17, 17, 17, 17, 17, 17, 17, 17, 17, 17, 17, 17, 17, 17, 17, 17, 17, 17, 17, 17, 17, 17, 17, 17, 17, 17, 17, 17, 17, 17, 17, 17, 17, 17, 17, 17, 17, 17, 17, 17,
        | 19, 12,  9,  0,  9,  0,  0,  0,  0, 22,  7,  0, 27,  7, 19,  7, 27, 14, 28, 12,  9, 27, 12, 12, 27, 22, 27, 14, 22,  7, 12,  7,  7,  7,  7, 14, 28,  7, 12, 27, 17, 17, 17, 17, 17, 17, 17, 17, 17, 17, 17, 17, 17, 17, 17, 17, 17, 17, 17, 17, 17, 17, 17, 17, 17, 17, 17, 17, 17, 17, 17, 17, 17, 17, 17, 17, 17, 17, 17, 17,
        | 19, 12,  9,  0,  9,  0,  0,  0,  0, 22,  7,  0, 27,  7, 19,  7, 27, 14, 28, 12,  9, 27, 12, 12, 27, 22, 27, 14, 22,  7, 12,  7,  7,  7,  7, 14, 28,  7, 12, 27, 17, 17, 17, 17, 17, 17, 17, 17, 17, 17, 17, 17, 17, 17, 17, 17, 17, 17, 17, 17, 17, 17, 17, 17, 17, 17, 17, 17, 17, 17, 17, 17, 17, 17, 17, 17, 17, 17, 17, 17,
        | 19, 12,  9,  0,  9,  0,  0,  0,  0, 22,  7,  0, 27,  7, 19,  7, 27, 14, 28, 12,  9, 27, 12, 12, 27, 22, 27, 14, 22,  7, 12,  7,  7,  7,  7, 14, 28,  7, 12, 27, 17, 17, 17, 17, 17, 17, 17, 17, 17, 17, 17, 17, 17, 17, 17, 17, 17, 17, 17, 17, 17, 17, 17, 17, 17, 17, 17, 17, 17, 17, 17, 17, 17, 17, 17, 17, 17, 17, 17, 17,
        | 17, 10, 17, 22, 17, 22, 22, 22, 22,  0, 18, 22, 12, 26, 17, 18, 13, 15, 17, 10, 17, 13, 10, 10, 12,  0, 12, 15,  0, 18, 10, 26, 18, 18, 18, 15, 17, 18, 10, 13, 10, 10, 10, 10, 10, 10, 10, 10, 10, 10, 10, 10, 10, 10, 10, 10, 10, 10, 10, 10, 10, 10, 10, 10, 10, 10, 10, 10, 10, 10, 10, 10, 10, 10, 10, 10, 10, 10, 10, 10,
        | 13, 11,  3,  7,  3,  7,  7,  7,  7, 18,  0,  7, 22,  9, 13,  0, 22,  8, 22, 11,  3, 22, 11, 11, 22, 18, 22,  8, 18,  0, 11,  9,  0,  0,  0,  8, 22,  0, 11, 22, 12, 12, 12, 12, 12, 12, 12, 12, 12, 12, 12, 12, 12, 12, 12, 12, 12, 12, 12, 12, 12, 12, 12, 12, 12, 12, 12, 12, 12, 12, 12, 12, 12, 12, 12, 12, 12, 12, 12, 12,
        | 19, 12,  9,  0,  9,  0,  0,  0,  0, 22,  7,  0, 27,  7, 19,  7, 27, 14, 28, 12,  9, 27, 12, 12, 27, 22, 27, 14, 22,  7, 12,  7,  7,  7,  7, 14, 28,  7, 12, 27, 17, 17, 17, 17, 17, 17, 17, 17, 17, 17, 17, 17, 17, 17, 17, 17, 17, 17, 17, 17, 17, 17, 17, 17, 17, 17, 17, 17, 17, 17, 17, 17, 17, 17, 17, 17, 17, 17, 17, 17,
        | 13, 19, 20, 27, 20, 27, 27, 27, 27, 12, 22, 27,  0, 29, 13, 22,  2, 15,  7, 19, 20,  2, 19, 19,  0, 12,  0, 15, 12, 22, 19, 29, 22, 22, 22, 15,  7, 22, 19,  2, 10, 10, 10, 10, 10, 10, 10, 10, 10, 10, 10, 10, 10, 10, 10, 10, 10, 10, 10, 10, 10, 10, 10, 10, 10, 10, 10, 10, 10, 10, 10, 10, 10, 10, 10, 10, 10, 10, 10, 10,
        | 19, 18, 10,  7, 10,  7,  7,  7,  7, 26,  9,  7, 29,  0, 19,  9, 29, 15, 29, 18, 10, 29, 18, 18, 29, 26, 29, 15, 26,  9, 18,  0,  9,  9,  9, 15, 29,  9, 18, 29, 20, 20, 20, 20, 20, 20, 20, 20, 20, 20, 20, 20, 20, 20, 20, 20, 20, 20, 20, 20, 20, 20, 20, 20, 20, 20, 20, 20, 20, 20, 20, 20, 20, 20, 20, 20, 20, 20, 20, 20,
        |  0, 17, 11, 19, 11, 19, 19, 19, 19, 17, 13, 19, 13, 19,  0, 13, 13,  6, 11, 17, 11, 13, 17, 17, 13, 17, 13,  6, 17, 13, 17, 19, 13, 13, 13,  6, 11, 13, 17, 13,  8,  8,  8,  8,  8,  8,  8,  8,  8,  8,  8,  8,  8,  8,  8,  8,  8,  8,  8,  8,  8,  8,  8,  8,  8,  8,  8,  8,  8,  8,  8,  8,  8,  8,  8,  8,  8,  8,  8,  8,
        | 13, 11,  3,  7,  3,  7,  7,  7,  7, 18,  0,  7, 22,  9, 13,  0, 22,  8, 22, 11,  3, 22, 11, 11, 22, 18, 22,  8, 18,  0, 11,  9,  0,  0,  0,  8, 22,  0, 11, 22, 12, 12, 12, 12, 12, 12, 12, 12, 12, 12, 12, 12, 12, 12, 12, 12, 12, 12, 12, 12, 12, 12, 12, 12, 12, 12, 12, 12, 12, 12, 12, 12, 12, 12, 12, 12, 12, 12, 12, 12,
        | 13, 20, 20, 27, 20, 27, 27, 27, 27, 13, 22, 27,  2, 29, 13, 22,  0, 15,  5, 20, 20,  0, 20, 20,  2, 13,  2, 15, 13, 22, 20, 29, 22, 22, 22, 15,  5, 22, 20,  0, 11, 11, 11, 11, 11, 11, 11, 11, 11, 11, 11, 11, 11, 11, 11, 11, 11, 11, 11, 11, 11, 11, 11, 11, 11, 11, 11, 11, 11, 11, 11, 11, 11, 11, 11, 11, 11, 11, 11, 11,
        |  6, 12,  6, 14,  6, 14, 14, 14, 14, 15,  8, 14, 15, 15,  6,  8, 15,  0, 15, 12,  6, 15, 12, 12, 15, 15, 15,  0, 15,  8, 12, 15,  8,  8,  8,  0, 15,  8, 12, 15,  6,  6,  6,  6,  6,  6,  6,  6,  6,  6,  6,  6,  6,  6,  6,  6,  6,  6,  6,  6,  6,  6,  6,  6,  6,  6,  6,  6,  6,  6,  6,  6,  6,  6,  6,  6,  6,  6,  6,  6,
        | 11, 23, 20, 28, 20, 28, 28, 28, 28, 17, 22, 28,  7, 29, 11, 22,  5, 15,  0, 23, 20,  5, 23, 23,  7, 17,  7, 15, 17, 22, 23, 29, 22, 22, 22, 15,  0, 22, 23,  5, 13, 13, 13, 13, 13, 13, 13, 13, 13, 13, 13, 13, 13, 13, 13, 13, 13, 13, 13, 13, 13, 13, 13, 13, 13, 13, 13, 13, 13, 13, 13, 13, 13, 13, 13, 13, 13, 13, 13, 13,
        | 17,  0, 10, 12, 10, 12, 12, 12, 12, 10, 11, 12, 19, 18, 17, 11, 20, 12, 23,  0, 10, 20,  0,  0, 19, 10, 19, 12, 10, 11,  0, 18, 11, 11, 11, 12, 23, 11,  0, 20, 11, 11, 11, 11, 11, 11, 11, 11, 11, 11, 11, 11, 11, 11, 11, 11, 11, 11, 11, 11, 11, 11, 11, 11, 11, 11, 11, 11, 11, 11, 11, 11, 11, 11, 11, 11, 11, 11, 11, 11,
        | 11, 10,  0,  9,  0,  9,  9,  9,  9, 17,  3,  9, 20, 10, 11,  3, 20,  6, 20, 10,  0, 20, 10, 10, 20, 17, 20,  6, 17,  3, 10, 10,  3,  3,  3,  6, 20,  3, 10, 20, 10, 10, 10, 10, 10, 10, 10, 10, 10, 10, 10, 10, 10, 10, 10, 10, 10, 10, 10, 10, 10, 10, 10, 10, 10, 10, 10, 10, 10, 10, 10, 10, 10, 10, 10, 10, 10, 10, 10, 10,
        | 13, 20, 20, 27, 20, 27, 27, 27, 27, 13, 22, 27,  2, 29, 13, 22,  0, 15,  5, 20, 20,  0, 20, 20,  2, 13,  2, 15, 13, 22, 20, 29, 22, 22, 22, 15,  5, 22, 20,  0, 11, 11, 11, 11, 11, 11, 11, 11, 11, 11, 11, 11, 11, 11, 11, 11, 11, 11, 11, 11, 11, 11, 11, 11, 11, 11, 11, 11, 11, 11, 11, 11, 11, 11, 11, 11, 11, 11, 11, 11,
        | 17,  0, 10, 12, 10, 12, 12, 12, 12, 10, 11, 12, 19, 18, 17, 11, 20, 12, 23,  0, 10, 20,  0,  0, 19, 10, 19, 12, 10, 11,  0, 18, 11, 11, 11, 12, 23, 11,  0, 20, 11, 11, 11, 11, 11, 11, 11, 11, 11, 11, 11, 11, 11, 11, 11, 11, 11, 11, 11, 11, 11, 11, 11, 11, 11, 11, 11, 11, 11, 11, 11, 11, 11, 11, 11, 11, 11, 11, 11, 11,
        | 17,  0, 10, 12, 10, 12, 12, 12, 12, 10, 11, 12, 19, 18, 17, 11, 20, 12, 23,  0, 10, 20,  0,  0, 19, 10, 19, 12, 10, 11,  0, 18, 11, 11, 11, 12, 23, 11,  0, 20, 11, 11, 11, 11, 11, 11, 11, 11, 11, 11, 11, 11, 11, 11, 11, 11, 11, 11, 11, 11, 11, 11, 11, 11, 11, 11, 11, 11, 11, 11, 11, 11, 11, 11, 11, 11, 11, 11, 11, 11,
        | 13, 19, 20, 27, 20, 27, 27, 27, 27, 12, 22, 27,  0, 29, 13, 22,  2, 15,  7, 19, 20,  2, 19, 19,  0, 12,  0, 15, 12, 22, 19, 29, 22, 22, 22, 15,  7, 22, 19,  2, 10, 10, 10, 10, 10, 10, 10, 10, 10, 10, 10, 10, 10, 10, 10, 10, 10, 10, 10, 10, 10, 10, 10, 10, 10, 10, 10, 10, 10, 10, 10, 10, 10, 10, 10, 10, 10, 10, 10, 10,
        | 17, 10, 17, 22, 17, 22, 22, 22, 22,  0, 18, 22, 12, 26, 17, 18, 13, 15, 17, 10, 17, 13, 10, 10, 12,  0, 12, 15,  0, 18, 10, 26, 18, 18, 18, 15, 17, 18, 10, 13, 10, 10, 10, 10, 10, 10, 10, 10, 10, 10, 10, 10, 10, 10, 10, 10, 10, 10, 10, 10, 10, 10, 10, 10, 10, 10, 10, 10, 10, 10, 10, 10, 10, 10, 10, 10, 10, 10, 10, 10,
        | 13, 19, 20, 27, 20, 27, 27, 27, 27, 12, 22, 27,  0, 29, 13, 22,  2, 15,  7, 19, 20,  2, 19, 19,  0, 12,  0, 15, 12, 22, 19, 29, 22, 22, 22, 15,  7, 22, 19,  2, 10, 10, 10, 10, 10, 10, 10, 10, 10, 10, 10, 10, 10, 10, 10, 10, 10, 10, 10, 10, 10, 10, 10, 10, 10, 10, 10, 10, 10, 10, 10, 10, 10, 10, 10, 10, 10, 10, 10, 10,
        |  6, 12,  6, 14,  6, 14, 14, 14, 14, 15,  8, 14, 15, 15,  6,  8, 15,  0, 15, 12,  6, 15, 12, 12, 15, 15, 15,  0, 15,  8, 12, 15,  8,  8,  8,  0, 15,  8, 12, 15,  6,  6,  6,  6,  6,  6,  6,  6,  6,  6,  6,  6,  6,  6,  6,  6,  6,  6,  6,  6,  6,  6,  6,  6,  6,  6,  6,  6,  6,  6,  6,  6,  6,  6,  6,  6,  6,  6,  6,  6,
        | 17, 10, 17, 22, 17, 22, 22, 22, 22,  0, 18, 22, 12, 26, 17, 18, 13, 15, 17, 10, 17, 13, 10, 10, 12,  0, 12, 15,  0, 18, 10, 26, 18, 18, 18, 15, 17, 18, 10, 13, 10, 10, 10, 10, 10, 10, 10, 10, 10, 10, 10, 10, 10, 10, 10, 10, 10, 10, 10, 10, 10, 10, 10, 10, 10, 10, 10, 10, 10, 10, 10, 10, 10, 10, 10, 10, 10, 10, 10, 10,
        | 13, 11,  3,  7,  3,  7,  7,  7,  7, 18,  0,  7, 22,  9, 13,  0, 22,  8, 22, 11,  3, 22, 11, 11, 22, 18, 22,  8, 18,  0, 11,  9,  0,  0,  0,  8, 22,  0, 11, 22, 12, 12, 12, 12, 12, 12, 12, 12, 12, 12, 12, 12, 12, 12, 12, 12, 12, 12, 12, 12, 12, 12, 12, 12, 12, 12, 12, 12, 12, 12, 12, 12, 12, 12, 12, 12, 12, 12, 12, 12,
        | 17,  0, 10, 12, 10, 12, 12, 12, 12, 10, 11, 12, 19, 18, 17, 11, 20, 12, 23,  0, 10, 20,  0,  0, 19, 10, 19, 12, 10, 11,  0, 18, 11, 11, 11, 12, 23, 11,  0, 20, 11, 11, 11, 11, 11, 11, 11, 11, 11, 11, 11, 11, 11, 11, 11, 11, 11, 11, 11, 11, 11, 11, 11, 11, 11, 11, 11, 11, 11, 11, 11, 11, 11, 11, 11, 11, 11, 11, 11, 11,
        | 19, 18, 10,  7, 10,  7,  7,  7,  7, 26,  9,  7, 29,  0, 19,  9, 29, 15, 29, 18, 10, 29, 18, 18, 29, 26, 29, 15, 26,  9, 18,  0,  9,  9,  9, 15, 29,  9, 18, 29, 20, 20, 20, 20, 20, 20, 20, 20, 20, 20, 20, 20, 20, 20, 20, 20, 20, 20, 20, 20, 20, 20, 20, 20, 20, 20, 20, 20, 20, 20, 20, 20, 20, 20, 20, 20, 20, 20, 20, 20,
        | 13, 11,  3,  7,  3,  7,  7,  7,  7, 18,  0,  7, 22,  9, 13,  0, 22,  8, 22, 11,  3, 22, 11, 11, 22, 18, 22,  8, 18,  0, 11,  9,  0,  0,  0,  8, 22,  0, 11, 22, 12, 12, 12, 12, 12, 12, 12, 12, 12, 12, 12, 12, 12, 12, 12, 12, 12, 12, 12, 12, 12, 12, 12, 12, 12, 12, 12, 12, 12, 12, 12, 12, 12, 12, 12, 12, 12, 12, 12, 12,
        | 13, 11,  3,  7,  3,  7,  7,  7,  7, 18,  0,  7, 22,  9, 13,  0, 22,  8, 22, 11,  3, 22, 11, 11, 22, 18, 22,  8, 18,  0, 11,  9,  0,  0,  0,  8, 22,  0, 11, 22, 12, 12, 12, 12, 12, 12, 12, 12, 12, 12, 12, 12, 12, 12, 12, 12, 12, 12, 12, 12, 12, 12, 12, 12, 12, 12, 12, 12, 12, 12, 12, 12, 12, 12, 12, 12, 12, 12, 12, 12,
        | 13, 11,  3,  7,  3,  7,  7,  7,  7, 18,  0,  7, 22,  9, 13,  0, 22,  8, 22, 11,  3, 22, 11, 11, 22, 18, 22,  8, 18,  0, 11,  9,  0,  0,  0,  8, 22,  0, 11, 22, 12, 12, 12, 12, 12, 12, 12, 12, 12, 12, 12, 12, 12, 12, 12, 12, 12, 12, 12, 12, 12, 12, 12, 12, 12, 12, 12, 12, 12, 12, 12, 12, 12, 12, 12, 12, 12, 12, 12, 12,
        |  6, 12,  6, 14,  6, 14, 14, 14, 14, 15,  8, 14, 15, 15,  6,  8, 15,  0, 15, 12,  6, 15, 12, 12, 15, 15, 15,  0, 15,  8, 12, 15,  8,  8,  8,  0, 15,  8, 12, 15,  6,  6,  6,  6,  6,  6,  6,  6,  6,  6,  6,  6,  6,  6,  6,  6,  6,  6,  6,  6,  6,  6,  6,  6,  6,  6,  6,  6,  6,  6,  6,  6,  6,  6,  6,  6,  6,  6,  6,  6,
        | 11, 23, 20, 28, 20, 28, 28, 28, 28, 17, 22, 28,  7, 29, 11, 22,  5, 15,  0, 23, 20,  5, 23, 23,  7, 17,  7, 15, 17, 22, 23, 29, 22, 22, 22, 15,  0, 22, 23,  5, 13, 13, 13, 13, 13, 13, 13, 13, 13, 13, 13, 13, 13, 13, 13, 13, 13, 13, 13, 13, 13, 13, 13, 13, 13, 13, 13, 13, 13, 13, 13, 13, 13, 13, 13, 13, 13, 13, 13, 13,
        | 13, 11,  3,  7,  3,  7,  7,  7,  7, 18,  0,  7, 22,  9, 13,  0, 22,  8, 22, 11,  3, 22, 11, 11, 22, 18, 22,  8, 18,  0, 11,  9,  0,  0,  0,  8, 22,  0, 11, 22, 12, 12, 12, 12, 12, 12, 12, 12, 12, 12, 12, 12, 12, 12, 12, 12, 12, 12, 12, 12, 12, 12, 12, 12, 12, 12, 12, 12, 12, 12, 12, 12, 12, 12, 12, 12, 12, 12, 12, 12,
        | 17,  0, 10, 12, 10, 12, 12, 12, 12, 10, 11, 12, 19, 18, 17, 11, 20, 12, 23,  0, 10, 20,  0,  0, 19, 10, 19, 12, 10, 11,  0, 18, 11, 11, 11, 12, 23, 11,  0, 20, 11, 11, 11, 11, 11, 11, 11, 11, 11, 11, 11, 11, 11, 11, 11, 11, 11, 11, 11, 11, 11, 11, 11, 11, 11, 11, 11, 11, 11, 11, 11, 11, 11, 11, 11, 11, 11, 11, 11, 11,
        | 13, 20, 20, 27, 20, 27, 27, 27, 27, 13, 22, 27,  2, 29, 13, 22,  0, 15,  5, 20, 20,  0, 20, 20,  2, 13,  2, 15, 13, 22, 20, 29, 22, 22, 22, 15,  5, 22, 20,  0, 11, 11, 11, 11, 11, 11, 11, 11, 11, 11, 11, 11, 11, 11, 11, 11, 11, 11, 11, 11, 11, 11, 11, 11, 11, 11, 11, 11, 11, 11, 11, 11, 11, 11, 11, 11, 11, 11, 11, 11,
        |  8, 11, 10, 17, 10, 17, 17, 17, 17, 10, 12, 17, 10, 20,  8, 12, 11,  6, 13, 11, 10, 11, 11, 11, 10, 10, 10,  6, 10, 12, 11, 20, 12, 12, 12,  6, 13, 12, 11, 11,  0,  0,  0,  0,  0,  0,  0,  0,  0,  0,  0,  0,  0,  0,  0,  0,  0,  0,  0,  0,  0,  0,  0,  0,  0,  0,  0,  0,  0,  0,  0,  0,  0,  0,  0,  0,  0,  0,  0,  0,
        |  8, 11, 10, 17, 10, 17, 17, 17, 17, 10, 12, 17, 10, 20,  8, 12, 11,  6, 13, 11, 10, 11, 11, 11, 10, 10, 10,  6, 10, 12, 11, 20, 12, 12, 12,  6, 13, 12, 11, 11,  0,  0,  0,  0,  0,  0,  0,  0,  0,  0,  0,  0,  0,  0,  0,  0,  0,  0,  0,  0,  0,  0,  0,  0,  0,  0,  0,  0,  0,  0,  0,  0,  0,  0,  0,  0,  0,  0,  0,  0,
        |  8, 11, 10, 17, 10, 17, 17, 17, 17, 10, 12, 17, 10, 20,  8, 12, 11,  6, 13, 11, 10, 11, 11, 11, 10, 10, 10,  6, 10, 12, 11, 20, 12, 12, 12,  6, 13, 12, 11, 11,  0,  0,  0,  0,  0,  0,  0,  0,  0,  0,  0,  0,  0,  0,  0,  0,  0,  0,  0,  0,  0,  0,  0,  0,  0,  0,  0,  0,  0,  0,  0,  0,  0,  0,  0,  0,  0,  0,  0,  0,
        |  8, 11, 10, 17, 10, 17, 17, 17, 17, 10, 12, 17, 10, 20,  8, 12, 11,  6, 13, 11, 10, 11, 11, 11, 10, 10, 10,  6, 10, 12, 11, 20, 12, 12, 12,  6, 13, 12, 11, 11,  0,  0,  0,  0,  0,  0,  0,  0,  0,  0,  0,  0,  0,  0,  0,  0,  0,  0,  0,  0,  0,  0,  0,  0,  0,  0,  0,  0,  0,  0,  0,  0,  0,  0,  0,  0,  0,  0,  0,  0,
        |  8, 11, 10, 17, 10, 17, 17, 17, 17, 10, 12, 17, 10, 20,  8, 12, 11,  6, 13, 11, 10, 11, 11, 11, 10, 10, 10,  6, 10, 12, 11, 20, 12, 12, 12,  6, 13, 12, 11, 11,  0,  0,  0,  0,  0,  0,  0,  0,  0,  0,  0,  0,  0,  0,  0,  0,  0,  0,  0,  0,  0,  0,  0,  0,  0,  0,  0,  0,  0,  0,  0,  0,  0,  0,  0,  0,  0,  0,  0,  0,
        |  8, 11, 10, 17, 10, 17, 17, 17, 17, 10, 12, 17, 10, 20,  8, 12, 11,  6, 13, 11, 10, 11, 11, 11, 10, 10, 10,  6, 10, 12, 11, 20, 12, 12, 12,  6, 13, 12, 11, 11,  0,  0,  0,  0,  0,  0,  0,  0,  0,  0,  0,  0,  0,  0,  0,  0,  0,  0,  0,  0,  0,  0,  0,  0,  0,  0,  0,  0,  0,  0,  0,  0,  0,  0,  0,  0,  0,  0,  0,  0,
        |  8, 11, 10, 17, 10, 17, 17, 17, 17, 10, 12, 17, 10, 20,  8, 12, 11,  6, 13, 11, 10, 11, 11, 11, 10, 10, 10,  6, 10, 12, 11, 20, 12, 12, 12,  6, 13, 12, 11, 11,  0,  0,  0,  0,  0,  0,  0,  0,  0,  0,  0,  0,  0,  0,  0,  0,  0,  0,  0,  0,  0,  0,  0,  0,  0,  0,  0,  0,  0,  0,  0,  0,  0,  0,  0,  0,  0,  0,  0,  0,
        |  8, 11, 10, 17, 10, 17, 17, 17, 17, 10, 12, 17, 10, 20,  8, 12, 11,  6, 13, 11, 10, 11, 11, 11, 10, 10, 10,  6, 10, 12, 11, 20, 12, 12, 12,  6, 13, 12, 11, 11,  0,  0,  0,  0,  0,  0,  0,  0,  0,  0,  0,  0,  0,  0,  0,  0,  0,  0,  0,  0,  0,  0,  0,  0,  0,  0,  0,  0,  0,  0,  0,  0,  0,  0,  0,  0,  0,  0,  0,  0,
        |  8, 11, 10, 17, 10, 17, 17, 17, 17, 10, 12, 17, 10, 20,  8, 12, 11,  6, 13, 11, 10, 11, 11, 11, 10, 10, 10,  6, 10, 12, 11, 20, 12, 12, 12,  6, 13, 12, 11, 11,  0,  0,  0,  0,  0,  0,  0,  0,  0,  0,  0,  0,  0,  0,  0,  0,  0,  0,  0,  0,  0,  0,  0,  0,  0,  0,  0,  0,  0,  0,  0,  0,  0,  0,  0,  0,  0,  0,  0,  0,
        |  8, 11, 10, 17, 10, 17, 17, 17, 17, 10, 12, 17, 10, 20,  8, 12, 11,  6, 13, 11, 10, 11, 11, 11, 10, 10, 10,  6, 10, 12, 11, 20, 12, 12, 12,  6, 13, 12, 11, 11,  0,  0,  0,  0,  0,  0,  0,  0,  0,  0,  0,  0,  0,  0,  0,  0,  0,  0,  0,  0,  0,  0,  0,  0,  0,  0,  0,  0,  0,  0,  0,  0,  0,  0,  0,  0,  0,  0,  0,  0,
        |  8, 11, 10, 17, 10, 17, 17, 17, 17, 10, 12, 17, 10, 20,  8, 12, 11,  6, 13, 11, 10, 11, 11, 11, 10, 10, 10,  6, 10, 12, 11, 20, 12, 12, 12,  6, 13, 12, 11, 11,  0,  0,  0,  0,  0,  0,  0,  0,  0,  0,  0,  0,  0,  0,  0,  0,  0,  0,  0,  0,  0,  0,  0,  0,  0,  0,  0,  0,  0,  0,  0,  0,  0,  0,  0,  0,  0,  0,  0,  0,
        |  8, 11, 10, 17, 10, 17, 17, 17, 17, 10, 12, 17, 10, 20,  8, 12, 11,  6, 13, 11, 10, 11, 11, 11, 10, 10, 10,  6, 10, 12, 11, 20, 12, 12, 12,  6, 13, 12, 11, 11,  0,  0,  0,  0,  0,  0,  0,  0,  0,  0,  0,  0,  0,  0,  0,  0,  0,  0,  0,  0,  0,  0,  0,  0,  0,  0,  0,  0,  0,  0,  0,  0,  0,  0,  0,  0,  0,  0,  0,  0,
        |  8, 11, 10, 17, 10, 17, 17, 17, 17, 10, 12, 17, 10, 20,  8, 12, 11,  6, 13, 11, 10, 11, 11, 11, 10, 10, 10,  6, 10, 12, 11, 20, 12, 12, 12,  6, 13, 12, 11, 11,  0,  0,  0,  0,  0,  0,  0,  0,  0,  0,  0,  0,  0,  0,  0,  0,  0,  0,  0,  0,  0,  0,  0,  0,  0,  0,  0,  0,  0,  0,  0,  0,  0,  0,  0,  0,  0,  0,  0,  0,
        |  8, 11, 10, 17, 10, 17, 17, 17, 17, 10, 12, 17, 10, 20,  8, 12, 11,  6, 13, 11, 10, 11, 11, 11, 10, 10, 10,  6, 10, 12, 11, 20, 12, 12, 12,  6, 13, 12, 11, 11,  0,  0,  0,  0,  0,  0,  0,  0,  0,  0,  0,  0,  0,  0,  0,  0,  0,  0,  0,  0,  0,  0,  0,  0,  0,  0,  0,  0,  0,  0,  0,  0,  0,  0,  0,  0,  0,  0,  0,  0,
        |  8, 11, 10, 17, 10, 17, 17, 17, 17, 10, 12, 17, 10, 20,  8, 12, 11,  6, 13, 11, 10, 11, 11, 11, 10, 10, 10,  6, 10, 12, 11, 20, 12, 12, 12,  6, 13, 12, 11, 11,  0,  0,  0,  0,  0,  0,  0,  0,  0,  0,  0,  0,  0,  0,  0,  0,  0,  0,  0,  0,  0,  0,  0,  0,  0,  0,  0,  0,  0,  0,  0,  0,  0,  0,  0,  0,  0,  0,  0,  0,
        |  8, 11, 10, 17, 10, 17, 17, 17, 17, 10, 12, 17, 10, 20,  8, 12, 11,  6, 13, 11, 10, 11, 11, 11, 10, 10, 10,  6, 10, 12, 11, 20, 12, 12, 12,  6, 13, 12, 11, 11,  0,  0,  0,  0,  0,  0,  0,  0,  0,  0,  0,  0,  0,  0,  0,  0,  0,  0,  0,  0,  0,  0,  0,  0,  0,  0,  0,  0,  0,  0,  0,  0,  0,  0,  0,  0,  0,  0,  0,  0,
        |  8, 11, 10, 17, 10, 17, 17, 17, 17, 10, 12, 17, 10, 20,  8, 12, 11,  6, 13, 11, 10, 11, 11, 11, 10, 10, 10,  6, 10, 12, 11, 20, 12, 12, 12,  6, 13, 12, 11, 11,  0,  0,  0,  0,  0,  0,  0,  0,  0,  0,  0,  0,  0,  0,  0,  0,  0,  0,  0,  0,  0,  0,  0,  0,  0,  0,  0,  0,  0,  0,  0,  0,  0,  0,  0,  0,  0,  0,  0,  0,
        |  8, 11, 10, 17, 10, 17, 17, 17, 17, 10, 12, 17, 10, 20,  8, 12, 11,  6, 13, 11, 10, 11, 11, 11, 10, 10, 10,  6, 10, 12, 11, 20, 12, 12, 12,  6, 13, 12, 11, 11,  0,  0,  0,  0,  0,  0,  0,  0,  0,  0,  0,  0,  0,  0,  0,  0,  0,  0,  0,  0,  0,  0,  0,  0,  0,  0,  0,  0,  0,  0,  0,  0,  0,  0,  0,  0,  0,  0,  0,  0,
        |  8, 11, 10, 17, 10, 17, 17, 17, 17, 10, 12, 17, 10, 20,  8, 12, 11,  6, 13, 11, 10, 11, 11, 11, 10, 10, 10,  6, 10, 12, 11, 20, 12, 12, 12,  6, 13, 12, 11, 11,  0,  0,  0,  0,  0,  0,  0,  0,  0,  0,  0,  0,  0,  0,  0,  0,  0,  0,  0,  0,  0,  0,  0,  0,  0,  0,  0,  0,  0,  0,  0,  0,  0,  0,  0,  0,  0,  0,  0,  0,
        |  8, 11, 10, 17, 10, 17, 17, 17, 17, 10, 12, 17, 10, 20,  8, 12, 11,  6, 13, 11, 10, 11, 11, 11, 10, 10, 10,  6, 10, 12, 11, 20, 12, 12, 12,  6, 13, 12, 11, 11,  0,  0,  0,  0,  0,  0,  0,  0,  0,  0,  0,  0,  0,  0,  0,  0,  0,  0,  0,  0,  0,  0,  0,  0,  0,  0,  0,  0,  0,  0,  0,  0,  0,  0,  0,  0,  0,  0,  0,  0,
        |  8, 11, 10, 17, 10, 17, 17, 17, 17, 10, 12, 17, 10, 20,  8, 12, 11,  6, 13, 11, 10, 11, 11, 11, 10, 10, 10,  6, 10, 12, 11, 20, 12, 12, 12,  6, 13, 12, 11, 11,  0,  0,  0,  0,  0,  0,  0,  0,  0,  0,  0,  0,  0,  0,  0,  0,  0,  0,  0,  0,  0,  0,  0,  0,  0,  0,  0,  0,  0,  0,  0,  0,  0,  0,  0,  0,  0,  0,  0,  0,
        |  8, 11, 10, 17, 10, 17, 17, 17, 17, 10, 12, 17, 10, 20,  8, 12, 11,  6, 13, 11, 10, 11, 11, 11, 10, 10, 10,  6, 10, 12, 11, 20, 12, 12, 12,  6, 13, 12, 11, 11,  0,  0,  0,  0,  0,  0,  0,  0,  0,  0,  0,  0,  0,  0,  0,  0,  0,  0,  0,  0,  0,  0,  0,  0,  0,  0,  0,  0,  0,  0,  0,  0,  0,  0,  0,  0,  0,  0,  0,  0,
        |  8, 11, 10, 17, 10, 17, 17, 17, 17, 10, 12, 17, 10, 20,  8, 12, 11,  6, 13, 11, 10, 11, 11, 11, 10, 10, 10,  6, 10, 12, 11, 20, 12, 12, 12,  6, 13, 12, 11, 11,  0,  0,  0,  0,  0,  0,  0,  0,  0,  0,  0,  0,  0,  0,  0,  0,  0,  0,  0,  0,  0,  0,  0,  0,  0,  0,  0,  0,  0,  0,  0,  0,  0,  0,  0,  0,  0,  0,  0,  0,
        |  8, 11, 10, 17, 10, 17, 17, 17, 17, 10, 12, 17, 10, 20,  8, 12, 11,  6, 13, 11, 10, 11, 11, 11, 10, 10, 10,  6, 10, 12, 11, 20, 12, 12, 12,  6, 13, 12, 11, 11,  0,  0,  0,  0,  0,  0,  0,  0,  0,  0,  0,  0,  0,  0,  0,  0,  0,  0,  0,  0,  0,  0,  0,  0,  0,  0,  0,  0,  0,  0,  0,  0,  0,  0,  0,  0,  0,  0,  0,  0,
        |  8, 11, 10, 17, 10, 17, 17, 17, 17, 10, 12, 17, 10, 20,  8, 12, 11,  6, 13, 11, 10, 11, 11, 11, 10, 10, 10,  6, 10, 12, 11, 20, 12, 12, 12,  6, 13, 12, 11, 11,  0,  0,  0,  0,  0,  0,  0,  0,  0,  0,  0,  0,  0,  0,  0,  0,  0,  0,  0,  0,  0,  0,  0,  0,  0,  0,  0,  0,  0,  0,  0,  0,  0,  0,  0,  0,  0,  0,  0,  0,
        |  8, 11, 10, 17, 10, 17, 17, 17, 17, 10, 12, 17, 10, 20,  8, 12, 11,  6, 13, 11, 10, 11, 11, 11, 10, 10, 10,  6, 10, 12, 11, 20, 12, 12, 12,  6, 13, 12, 11, 11,  0,  0,  0,  0,  0,  0,  0,  0,  0,  0,  0,  0,  0,  0,  0,  0,  0,  0,  0,  0,  0,  0,  0,  0,  0,  0,  0,  0,  0,  0,  0,  0,  0,  0,  0,  0,  0,  0,  0,  0,
        |  8, 11, 10, 17, 10, 17, 17, 17, 17, 10, 12, 17, 10, 20,  8, 12, 11,  6, 13, 11, 10, 11, 11, 11, 10, 10, 10,  6, 10, 12, 11, 20, 12, 12, 12,  6, 13, 12, 11, 11,  0,  0,  0,  0,  0,  0,  0,  0,  0,  0,  0,  0,  0,  0,  0,  0,  0,  0,  0,  0,  0,  0,  0,  0,  0,  0,  0,  0,  0,  0,  0,  0,  0,  0,  0,  0,  0,  0,  0,  0,
        |  8, 11, 10, 17, 10, 17, 17, 17, 17, 10, 12, 17, 10, 20,  8, 12, 11,  6, 13, 11, 10, 11, 11, 11, 10, 10, 10,  6, 10, 12, 11, 20, 12, 12, 12,  6, 13, 12, 11, 11,  0,  0,  0,  0,  0,  0,  0,  0,  0,  0,  0,  0,  0,  0,  0,  0,  0,  0,  0,  0,  0,  0,  0,  0,  0,  0,  0,  0,  0,  0,  0,  0,  0,  0,  0,  0,  0,  0,  0,  0,
        |  8, 11, 10, 17, 10, 17, 17, 17, 17, 10, 12, 17, 10, 20,  8, 12, 11,  6, 13, 11, 10, 11, 11, 11, 10, 10, 10,  6, 10, 12, 11, 20, 12, 12, 12,  6, 13, 12, 11, 11,  0,  0,  0,  0,  0,  0,  0,  0,  0,  0,  0,  0,  0,  0,  0,  0,  0,  0,  0,  0,  0,  0,  0,  0,  0,  0,  0,  0,  0,  0,  0,  0,  0,  0,  0,  0,  0,  0,  0,  0,
        |  8, 11, 10, 17, 10, 17, 17, 17, 17, 10, 12, 17, 10, 20,  8, 12, 11,  6, 13, 11, 10, 11, 11, 11, 10, 10, 10,  6, 10, 12, 11, 20, 12, 12, 12,  6, 13, 12, 11, 11,  0,  0,  0,  0,  0,  0,  0,  0,  0,  0,  0,  0,  0,  0,  0,  0,  0,  0,  0,  0,  0,  0,  0,  0,  0,  0,  0,  0,  0,  0,  0,  0,  0,  0,  0,  0,  0,  0,  0,  0,
        |  8, 11, 10, 17, 10, 17, 17, 17, 17, 10, 12, 17, 10, 20,  8, 12, 11,  6, 13, 11, 10, 11, 11, 11, 10, 10, 10,  6, 10, 12, 11, 20, 12, 12, 12,  6, 13, 12, 11, 11,  0,  0,  0,  0,  0,  0,  0,  0,  0,  0,  0,  0,  0,  0,  0,  0,  0,  0,  0,  0,  0,  0,  0,  0,  0,  0,  0,  0,  0,  0,  0,  0,  0,  0,  0,  0,  0,  0,  0,  0,
        |  8, 11, 10, 17, 10, 17, 17, 17, 17, 10, 12, 17, 10, 20,  8, 12, 11,  6, 13, 11, 10, 11, 11, 11, 10, 10, 10,  6, 10, 12, 11, 20, 12, 12, 12,  6, 13, 12, 11, 11,  0,  0,  0,  0,  0,  0,  0,  0,  0,  0,  0,  0,  0,  0,  0,  0,  0,  0,  0,  0,  0,  0,  0,  0,  0,  0,  0,  0,  0,  0,  0,  0,  0,  0,  0,  0,  0,  0,  0,  0,
        |  8, 11, 10, 17, 10, 17, 17, 17, 17, 10, 12, 17, 10, 20,  8, 12, 11,  6, 13, 11, 10, 11, 11, 11, 10, 10, 10,  6, 10, 12, 11, 20, 12, 12, 12,  6, 13, 12, 11, 11,  0,  0,  0,  0,  0,  0,  0,  0,  0,  0,  0,  0,  0,  0,  0,  0,  0,  0,  0,  0,  0,  0,  0,  0,  0,  0,  0,  0,  0,  0,  0,  0,  0,  0,  0,  0,  0,  0,  0,  0,
        |  8, 11, 10, 17, 10, 17, 17, 17, 17, 10, 12, 17, 10, 20,  8, 12, 11,  6, 13, 11, 10, 11, 11, 11, 10, 10, 10,  6, 10, 12, 11, 20, 12, 12, 12,  6, 13, 12, 11, 11,  0,  0,  0,  0,  0,  0,  0,  0,  0,  0,  0,  0,  0,  0,  0,  0,  0,  0,  0,  0,  0,  0,  0,  0,  0,  0,  0,  0,  0,  0,  0,  0,  0,  0,  0,  0,  0,  0,  0,  0,
        |  8, 11, 10, 17, 10, 17, 17, 17, 17, 10, 12, 17, 10, 20,  8, 12, 11,  6, 13, 11, 10, 11, 11, 11, 10, 10, 10,  6, 10, 12, 11, 20, 12, 12, 12,  6, 13, 12, 11, 11,  0,  0,  0,  0,  0,  0,  0,  0,  0,  0,  0,  0,  0,  0,  0,  0,  0,  0,  0,  0,  0,  0,  0,  0,  0,  0,  0,  0,  0,  0,  0,  0,  0,  0,  0,  0,  0,  0,  0,  0,
        |  8, 11, 10, 17, 10, 17, 17, 17, 17, 10, 12, 17, 10, 20,  8, 12, 11,  6, 13, 11, 10, 11, 11, 11, 10, 10, 10,  6, 10, 12, 11, 20, 12, 12, 12,  6, 13, 12, 11, 11,  0,  0,  0,  0,  0,  0,  0,  0,  0,  0,  0,  0,  0,  0,  0,  0,  0,  0,  0,  0,  0,  0,  0,  0,  0,  0,  0,  0,  0,  0,  0,  0,  0,  0,  0,  0,  0,  0,  0,  0,
        |  8, 11, 10, 17, 10, 17, 17, 17, 17, 10, 12, 17, 10, 20,  8, 12, 11,  6, 13, 11, 10, 11, 11, 11, 10, 10, 10,  6, 10, 12, 11, 20, 12, 12, 12,  6, 13, 12, 11, 11,  0,  0,  0,  0,  0,  0,  0,  0,  0,  0,  0,  0,  0,  0,  0,  0,  0,  0,  0,  0,  0,  0,  0,  0,  0,  0,  0,  0,  0,  0,  0,  0,  0,  0,  0,  0,  0,  0,  0,  0,
        |  8, 11, 10, 17, 10, 17, 17, 17, 17, 10, 12, 17, 10, 20,  8, 12, 11,  6, 13, 11, 10, 11, 11, 11, 10, 10, 10,  6, 10, 12, 11, 20, 12, 12, 12,  6, 13, 12, 11, 11,  0,  0,  0,  0,  0,  0,  0,  0,  0,  0,  0,  0,  0,  0,  0,  0,  0,  0,  0,  0,  0,  0,  0,  0,  0,  0,  0,  0,  0,  0,  0,  0,  0,  0,  0,  0,  0,  0,  0,  0,
        |  8, 11, 10, 17, 10, 17, 17, 17, 17, 10, 12, 17, 10, 20,  8, 12, 11,  6, 13, 11, 10, 11, 11, 11, 10, 10, 10,  6, 10, 12, 11, 20, 12, 12, 12,  6, 13, 12, 11, 11,  0,  0,  0,  0,  0,  0,  0,  0,  0,  0,  0,  0,  0,  0,  0,  0,  0,  0,  0,  0,  0,  0,  0,  0,  0,  0,  0,  0,  0,  0,  0,  0,  0,  0,  0,  0,  0,  0,  0,  0,
        |  8, 11, 10, 17, 10, 17, 17, 17, 17, 10, 12, 17, 10, 20,  8, 12, 11,  6, 13, 11, 10, 11, 11, 11, 10, 10, 10,  6, 10, 12, 11, 20, 12, 12, 12,  6, 13, 12, 11, 11,  0,  0,  0,  0,  0,  0,  0,  0,  0,  0,  0,  0,  0,  0,  0,  0,  0,  0,  0,  0,  0,  0,  0,  0,  0,  0,  0,  0,  0,  0,  0,  0,  0,  0,  0,  0,  0,  0,  0,  0|];
l =     [ 11,  7,  5, 10,  5, 10, 10, 10, 10,  3,  9, 10,  6,  8, 11,  9,  1,  2,  4,  7,  5,  1,  7,  7,  6,  3,  6,  2,  3,  9,  7,  8,  9,  9,  9,  2,  4,  9,  7,  1];
a =     [  9, 11, 26, 17, 19, 17, 30, 17, 28, 10, 28, 24, 10, 20, 35, 12, 11, 17, 22, 15, 30, 47, 49, 44, 55, 56, 69, 43, 65, 38, 58, 50, 51, 43, 64, 35, 34, 35, 63, 52];
b =     [ 30, 46, 49, 55, 35, 51, 60, 41, 66, 25, 62, 46, 30, 58, 70, 33, 34, 34, 38, 46, 75,101, 96,102,103,120,113, 98,109, 93,110, 91,119, 87,113,104,103,102,112,112];
s =     [ 10, 16, 13, 15, 16, 17, 12, 12, 15, 10, 19, 19, 19, 14, 16, 15, 18, 10, 18, 17, 10, 16, 13, 15, 16, 17, 12, 12, 15, 10, 19, 19, 19, 14, 16, 15, 18, 10, 18, 17];
q =     [  3,  2,  3,  3,  2,  1,  4,  2,  3,  3,  4,  3,  1,  2,  2,  3,  3,  3,  1,  4, -3, -2, -3, -3, -2, -1, -4, -2, -3, -3, -4, -3, -1, -2, -2, -3, -3, -3, -1, -4];
